c Synthetic graph for maximum clique benchmarking
c Vertices: 150
c Edges: 199
c Undirected graph (each edge listed once)
c Vertices: 150, Edges: 199
p edge 150 199
e 1 2
e 1 52
e 1 97
e 2 33
e 2 91
e 3 4
e 4 19
e 4 40
e 4 89
e 4 116
e 5 6
e 7 8
e 7 67
e 8 20
e 8 26
e 8 113
e 9 10
e 9 24
e 9 128
e 11 12
e 11 67
e 11 114
e 11 128
e 12 40
e 12 111
e 12 130
e 13 14
e 15 16
e 16 116
e 16 146
e 17 18
e 17 62
e 17 83
e 18 59
e 19 20
e 21 22
e 21 32
e 21 54
e 21 80
e 21 106
e 21 114
e 21 137
e 23 24
e 23 50
e 24 84
e 25 26
e 25 86
e 25 107
e 25 149
e 26 82
e 26 89
e 27 28
e 27 85
e 27 131
e 27 138
e 28 126
e 29 30
e 29 49
e 29 69
e 30 77
e 30 98
e 30 123
e 31 32
e 31 90
e 33 34
e 33 91
e 33 134
e 34 42
e 34 67
e 35 36
e 35 113
e 35 139
e 36 136
e 37 38
e 38 50
e 39 40
e 39 95
e 39 136
e 40 60
e 40 109
e 40 121
e 41 42
e 42 146
e 43 44
e 43 115
e 44 57
e 44 84
e 44 95
e 45 46
e 45 149
e 46 70
e 47 48
e 48 58
e 48 114
e 49 50
e 51 52
e 51 66
e 51 110
e 51 112
e 53 54
e 55 56
e 55 69
e 56 118
e 57 58
e 57 149
e 58 71
e 58 79
e 59 60
e 59 71
e 59 105
e 59 149
e 60 90
e 61 62
e 61 116
e 62 71
e 63 64
e 63 97
e 65 66
e 67 68
e 67 128
e 69 70
e 69 77
e 69 85
e 69 89
e 69 103
e 69 136
e 71 72
e 71 125
e 71 144
e 71 149
e 72 74
e 72 135
e 73 74
e 73 117
e 73 125
e 75 76
e 75 114
e 76 79
e 76 129
e 76 144
e 77 78
e 77 84
e 77 147
e 78 119
e 78 124
e 79 80
e 81 82
e 82 123
e 83 84
e 85 86
e 86 126
e 87 88
e 89 90
e 91 92
e 92 131
e 93 94
e 95 96
e 95 135
e 97 98
e 97 140
e 99 100
e 101 102
e 101 148
e 103 104
e 103 142
e 105 106
e 107 108
e 109 110
e 109 136
e 109 145
e 111 112
e 113 114
e 113 115
e 113 138
e 113 150
e 114 129
e 115 116
e 117 118
e 119 120
e 119 142
e 121 122
e 123 124
e 124 138
e 125 126
e 125 132
e 127 128
e 129 130
e 131 132
e 131 134
e 133 134
e 133 147
e 135 136
e 137 138
e 139 140
e 141 142
e 143 144
e 145 146
e 147 148
e 149 150
